p cnf 43 93
c x0 -> 42
c x1 -> 32
c x2 -> 20
c x3 -> 43
2 3 -1 0
-2 -3 -1 0
2 -3 1 0
-2 3 1 0
4 -2 0
5 -2 0
-4 -5 2 0
6 -3 0
7 -3 0
-6 -7 3 0
8 4 0
-8 -4 0
9 5 0
-9 -5 0
10 6 0
-10 -6 0
11 7 0
-11 -7 0
12 -8 0
13 -8 0
-12 -13 8 0
14 -9 0
15 -9 0
-14 -15 9 0
16 -10 0
17 -10 0
-16 -17 10 0
18 -11 0
19 -11 0
-18 -19 11 0
20 12 0
-20 -12 0
21 -13 0
22 -13 0
-21 -22 13 0
23 14 0
-23 -14 0
24 -15 0
25 -15 0
-24 -25 15 0
20 16 0
-20 -16 0
27 -17 0
28 -17 0
-27 -28 17 0
29 18 0
-29 -18 0
30 -19 0
31 -19 0
-30 -31 19 0
32 21 0
-32 -21 0
33 22 0
-33 -22 0
34 -23 0
35 -23 0
-34 -35 23 0
13 24 0
-13 -24 0
36 25 0
-36 -25 0
32 27 0
-32 -27 0
38 28 0
-38 -28 0
39 -29 0
40 -29 0
-39 -40 29 0
17 30 0
-17 -30 0
41 31 0
-41 -31 0
42 -33 0
43 -33 0
-42 -43 33 0
42 34 0
-42 -34 0
43 35 0
-43 -35 0
21 -36 0
12 -36 0
-21 -12 36 0
42 -38 0
43 -38 0
-42 -43 38 0
42 39 0
-42 -39 0
43 40 0
-43 -40 0
27 -41 0
16 -41 0
-27 -16 41 0
1 0
